
List of user-set options:

                                    Name   Value                used
                           linear_solver = ma97                  yes
                   linear_system_scaling = none                  yes
                              ma97_order = best                  yes
                              ma97_small = 1e-30                 yes
                            ma97_switch1 = at_start              yes
                            ma97_switch2 = od_hd_reuse           yes
                                  ma97_u = 1e-06                 yes
                               ma97_umax = 0.5                   yes
                                max_iter = 500                   yes
                    max_refinement_steps = 20                    yes
                    min_refinement_steps = 5                     yes
                                 mu_init = 1e-06                 yes
           mu_superlinear_decrease_power = 1.25                  yes
                   nlp_scaling_min_value = 1e-08                 yes
                        option_file_name = ./ipopt.opt           yes
                             output_file = ./tmp/ipopt_output_tmp.output  yes
                      print_user_options = yes                   yes
        required_infeasibility_reduction = 1                      no
                   warm_start_bound_frac = 1e-20                 yes
                   warm_start_bound_push = 1e-20                 yes
                   warm_start_init_point = yes                   yes
              warm_start_mult_bound_push = 1e-20                 yes
                warm_start_mult_init_max = 1e+40                 yes
             warm_start_slack_bound_frac = 1e-20                 yes
             warm_start_slack_bound_push = 1e-20                 yes

******************************************************************************
This program contains Ipopt, a library for large-scale nonlinear optimization.
 Ipopt is released as open source code under the Eclipse Public License (EPL).
         For more information visit http://projects.coin-or.org/Ipopt
******************************************************************************

This is Ipopt version 3.12.10, running with linear solver ma97.

Number of nonzeros in equality constraint Jacobian...:   116388
Number of nonzeros in inequality constraint Jacobian.:      145
Number of nonzeros in Lagrangian Hessian.............:    47000

Total number of variables............................:    29934
                     variables with only lower bounds:    11309
                variables with lower and upper bounds:    15098
                     variables with only upper bounds:        0
Total number of equality constraints.................:    29862
Total number of inequality constraints...............:       21
        inequality constraints with only lower bounds:        0
   inequality constraints with lower and upper bounds:        0
        inequality constraints with only upper bounds:       21

iter    objective    inf_pr   inf_du lg(mu)  ||d||  lg(rg) alpha_du alpha_pr  ls
   0 -5.2315000e+03 1.77e-03 2.91e+04  -6.0 0.00e+00    -  0.00e+00 0.00e+00   0
   1 -5.2315000e+03 1.77e-03 9.19e+09  -6.0 1.65e+02    -  2.41e-06 9.59e-05h  1
   2 -5.2315000e+03 1.77e-03 8.73e+09  -6.0 1.65e+02    -  9.59e-05 2.82e-04f  1
   3 -5.2315000e+03 1.77e-03 8.73e+09  -6.0 1.65e+02    -  3.78e-04 2.26e-04f  1
   4 -5.2315000e+03 1.77e-03 8.72e+09  -6.0 1.65e+02    -  1.98e-03 1.14e-03f  1
   5 -5.2315000e+03 1.76e-03 8.68e+09  -6.0 1.64e+02    -  7.23e-03 4.76e-03f  1
   6 -5.2315000e+03 1.72e-03 8.50e+09  -6.0 1.63e+02    -  9.42e-03 2.02e-02f  1
   7 -5.2315000e+03 1.65e-03 8.16e+09  -6.0 1.60e+02    -  9.58e-02 4.04e-02f  1
   8 -5.2315000e+03 4.73e-02 6.10e+09  -6.0 1.52e+02    -  9.19e-02 2.52e-01f  1
   9 -5.2315000e+03 2.28e-01 1.43e+09  -6.0 1.09e+02    -  1.00e+00 7.66e-01f  1
iter    objective    inf_pr   inf_du lg(mu)  ||d||  lg(rg) alpha_du alpha_pr  ls
  10 -5.2315000e+03 1.58e-01 9.78e+08  -6.0 2.00e+01    -  1.00e+00 3.14e-01h  1
  11 -5.2315000e+03 3.98e-02 2.26e+08  -6.0 1.36e+01    -  1.00e+00 7.68e-01h  1
  12 -5.2315000e+03 1.73e-03 8.34e+06  -6.0 3.05e+00    -  1.00e+00 9.63e-01h  1
  13 -5.2315000e+03 3.41e-07 4.18e+00  -6.0 1.07e-01    -  1.00e+00 1.00e+00f  1
  14 -5.2315000e+03 3.05e-10 2.37e-06  -6.0 7.16e-06    -  1.00e+00 1.00e+00h  1
  15 -5.2315000e+03 3.98e-10 5.67e+01  -7.5 2.00e-04    -  1.00e+00 8.03e-01h  1
  16 -5.2315000e+03 4.58e-10 3.24e-06  -7.5 3.95e-05    -  1.00e+00 1.00e+00f  1
  17 -5.2315000e+03 4.58e-10 6.06e-10  -7.5 1.97e-09    -  1.00e+00 1.00e+00h  1
  18 -5.2315000e+03 3.79e-10 3.80e-07  -9.0 6.34e-06    -  1.00e+00 1.00e+00h  1
  19 -5.2315000e+03 2.38e-10 1.04e-11  -9.0 3.79e-10    -  1.00e+00 1.00e+00h  1

Number of Iterations....: 19

                                   (scaled)                 (unscaled)
Objective...............:  -5.2315000477662325e+03   -5.2315000477662325e+03
Dual infeasibility......:   1.0440893517022919e-11    1.0440893517022919e-11
Constraint violation....:   2.3752208912816014e-10    2.3752208912816014e-10
Complementarity.........:   9.0909775145579393e-10    9.0909775145579393e-10
Overall NLP error.......:   9.0909775145579393e-10    9.0909775145579393e-10


Number of objective function evaluations             = 20
Number of objective gradient evaluations             = 20
Number of equality constraint evaluations            = 20
Number of inequality constraint evaluations          = 21
Number of equality constraint Jacobian evaluations   = 20
Number of inequality constraint Jacobian evaluations = 20
Number of Lagrangian Hessian evaluations             = 19
Total CPU secs in IPOPT (w/o function evaluations)   =      8.627
Total CPU secs in NLP function evaluations           =      0.319

EXIT: Optimal Solution Found.
